StringID Type x y demand ReadyTime DueDate ServiceTime
D0 d 40 50.0 0.0 0.0 3390.0 0.0
Dt d 40 50.0 0.0 0.0 3390.0 0.0
C39 c3 0 45.0 20.0 1642.0 2282.0 90.0
C50 c1 26 32.0 10.0 255.0 895.0 90.0
C60 c2 35 5.0 20.0 1152.0 1792.0 90.0
C58 c2 38 5.0 30.0 1245.0 1885.0 90.0
C53 c2 44 5.0 20.0 1431.0 2071.0 90.0
P0 p 35 10.0 0.0 0.0 3390.0 45.0
param CV := 200.0 nan nan nan nan
param V := 1.0 nan nan nan nan
